5 5
1 22 2 48 4 51 3 80 0 11
2 59 3 14 1 7 0 69 4 58
3 40 0 93 2 81 1 94 4 25
3 78 4 42 0 86 2 44 1 5
3 28 1 76 2 60 0 77 4 21
-1
0 2 5
0 1 4 5
0 3 5
0 2 3 4 5
0 3 4 5
-2
92 302
88 161 214
272 335
128 314 352 304
197 288 363

386 9
11 8 17 23 4
0 7 21 13 19
5 1 12 22 18
10 20 6 15 3
2 16 9 14 24
